words_hard_train/7217.qaiger
aag 22 9 0 1 13
2
4
8
12
14
18
24
28
32
44
6 2 4
10 6 8
16 12 14
20 16 18
22 10 20
26 23 25
30 16 28
34 30 32
36 27 35
38 22 28
40 39 33
42 41 24
44 36 43
i0 2 y1[1]
i1 2 y1[2]
i2 2 y1[5]
i3 2 y1[3]
i4 2 y1[4]
i5 2 y1[6]
i6 2 y1[7]
i7 2 y1[0]
i8 1 x2[0]
o0 bv[0]
c
simplified
  <=
    add
      1
      add
        2 y1
        1
    << 7
      1 x2
