words_hard_train/7217.qaiger.qdimacs
p cnf 22 40
a 16 0
e 1 2 3 4 5 6 7 8 9 10 11 12 13 14 15 17 18 19 20 21 22 0
-1 -2 3 0
1 -3 0
2 -3 0
-3 -4 5 0
3 -5 0
4 -5 0
-6 -7 8 0
6 -8 0
7 -8 0
-8 -9 10 0
8 -10 0
9 -10 0
-5 -10 11 0
5 -11 0
10 -11 0
11 12 13 0
-11 -13 0
-12 -13 0
-8 -14 15 0
8 -15 0
14 -15 0
-15 -16 17 0
15 -17 0
16 -17 0
13 17 18 0
-13 -18 0
-17 -18 0
-11 -14 19 0
11 -19 0
14 -19 0
19 16 20 0
-19 -20 0
-16 -20 0
20 -12 21 0
-20 -21 0
12 -21 0
-18 21 22 0
18 -22 0
-21 -22 0
22 0
